57091 18317
44573 51574
43729 4579
39489 29702
54090 35868
34182 50183
30691 20392
46967 33349
13777 51712
37738 8277
53172 25461
2554 40159
36080 8400
44992 5490
38434 33673
9135 56615
60083 10251
52592 15799
42087 27311
22353 35327
53828 47571
35928 42861
22175 31674
36638 15280
7315 58110
14524 22900
3206 38485
15082 25129
61700 1525
46309 26385
64579 15067
34417 58805
56555 51405
1150 6360
54254 46235
50018 12294
12992 2041
25443 33106
54270 6935
53706 19133
58619 24011
57227 36367
41137 64461
59086 14439
14760 34954
33366 25281
65104 23875
19789 23506
3805 17379
5649 38878
38298 32726
50734 53755
47333 57994
47701 57663
22647 60502
61164 38324
47109 62423
63235 260
7297 9876
11825 23266
30574 47372
20967 19589
57362 34140
46927 31738
8682 13010
1779 24176
42391 58897
13179 56425
218 49613
58250 10664
49747 8982
25098 4238
23306 33504
31608 18178
5584 12261
